c Output_time 26.03.2020 18:13:16_+0100 1585242796805807602
c ** Program information **
c program_name                          "QBRG_debug"
c version                               "0.3.20"
c date                                  "25.3.2020"
c gid_id                                "673970833836058123f633335630c185360d632e"
c author                                "Oliver Kullmann"
c url                                   "https://github.com/OKullmann/oklibrary/blob/master/Satisfiability/Transformers/Generators/Random/QBRG.cpp"
c ** Machine information **
c machine_name                          "chyna-Lenovo-G50-70"
c bogomips                              3791.08
c ** Compilation information **
c compiler_version                      "g++ 7.5.0"
c compilation_date                      "Mar_26_2020 11:16:30"
c compilation_options                   "--std=c++17 -pedantic -fmax-errors=5 -Wall -Wextra -g -D_GLIBCXX_DEBUG"
c NDEBUG                                0
c OPTIMIZE                              0
c ** Parameters **
c command-line                          "./QBRG_debug" "e40 a40 40" "354*1,1|2-2,1|3-3,1" "" "1,t" ""
c output                                "QuBlRaGe_120_354_1585242796743815764.qdimacs"
c options                               "filtered,renamed"
c num_quantifier_blocks                 3
c  quantifier_blocks                    1:e1-40 2:a41-80 3:e81-120
c num_clause-blocks                     1
c  clause-blocks                        354 * {1-40,1,1/2} | {41-80,1,1/2} | {81-120,1,1/2}
c num_e-seeds                           30+2=32
c  e-seeds                              1 0 1 0 4 120 2 40 1 40 0 40 1 354 3 1 1 1 1 2 2 2 1 1 2 3 3 1 1 2 1 1585242796743815132
p cnf 120 354
e 1 2 3 4 5 6 7 8 9 10 11 12 13 14 15 16 17 18 19 20 21 22 23 24 25 26 27 28 29 30 31 32 33 34 35 36 37 38 39 40 0
a 41 42 43 44 45 46 47 48 49 50 51 52 53 54 55 56 57 58 59 60 61 62 63 64 65 66 67 68 69 70 71 72 73 74 75 76 77 78 79 80 0
e 81 82 83 84 85 86 87 88 89 90 91 92 93 94 95 96 97 98 99 100 101 102 103 104 105 106 107 108 109 110 111 112 113 114 115 116 117 118 119 120 0
17 44 -81 0
-39 -55 -81 0
-6 -70 -81 0
15 -78 -81 0
-12 -54 81 0
-36 -48 -82 0
-14 58 -82 0
-6 -61 -82 0
-28 61 -82 0
-19 -70 -82 0
40 74 -82 0
20 -80 -82 0
12 -46 82 0
-8 -47 82 0
7 -53 82 0
6 -54 82 0
-33 51 -83 0
29 -65 -83 0
21 -43 83 0
-19 -49 83 0
-28 -53 83 0
-12 54 83 0
11 -45 -84 0
21 46 -84 0
24 63 -84 0
-30 47 84 0
-20 -63 84 0
27 66 84 0
-3 -79 84 0
-34 -47 -85 0
9 -49 -85 0
20 49 -85 0
-4 56 -85 0
-16 -41 85 0
11 43 85 0
-8 -57 85 0
-14 74 85 0
39 -42 -86 0
8 -48 -86 0
-14 58 -86 0
-30 59 -86 0
-33 67 -86 0
25 -80 -86 0
18 -49 86 0
-34 51 86 0
23 59 86 0
-12 -74 86 0
20 75 86 0
33 78 86 0
-15 41 -87 0
-3 -43 -87 0
31 -48 -87 0
38 64 -87 0
-10 65 -87 0
-22 75 -87 0
-32 -76 -87 0
38 80 -87 0
8 49 87 0
-20 50 87 0
11 55 87 0
-22 -70 87 0
-15 -74 87 0
-25 -49 -88 0
-36 -64 -88 0
-30 73 -88 0
1 -75 -88 0
-35 -76 -88 0
16 76 -88 0
25 70 88 0
-6 -72 88 0
32 -61 -89 0
-22 -62 -89 0
-5 65 -89 0
-26 68 -89 0
-3 80 89 0
4 43 -90 0
33 43 -90 0
19 -49 -90 0
28 -61 -90 0
-12 64 -90 0
18 -65 -90 0
20 67 -90 0
-26 41 90 0
4 79 90 0
16 -52 -91 0
6 65 -91 0
19 70 -91 0
3 71 -91 0
-28 -45 -92 0
23 -52 -92 0
-22 60 -92 0
6 75 -92 0
-22 -80 -92 0
30 -47 92 0
25 53 92 0
33 -69 92 0
25 -70 92 0
36 70 92 0
-36 -78 92 0
-17 78 92 0
32 -44 -93 0
40 -45 -93 0
35 -46 -93 0
-16 -51 -93 0
-18 59 -93 0
-27 -75 -93 0
32 75 -93 0
-20 78 -93 0
-26 42 93 0
22 -48 93 0
18 56 93 0
38 -76 93 0
-19 77 93 0
-14 48 -94 0
-5 -59 -94 0
8 70 -94 0
23 73 -94 0
-17 -47 94 0
-39 -61 94 0
35 -75 94 0
-6 49 -95 0
1 73 -95 0
-14 76 -95 0
-37 -80 -95 0
30 46 95 0
-1 -47 95 0
27 60 95 0
15 76 95 0
-10 53 -96 0
-29 58 -96 0
-17 47 96 0
-20 47 96 0
1 -51 96 0
35 64 96 0
-31 -78 96 0
-8 42 -97 0
34 -49 -97 0
4 -53 -97 0
24 61 -97 0
23 73 -97 0
34 -49 97 0
-25 49 97 0
2 68 97 0
6 74 97 0
8 -77 97 0
-29 -44 -98 0
25 -47 -98 0
40 48 -98 0
20 53 -98 0
30 55 -98 0
-37 62 -98 0
-34 -44 98 0
-2 51 98 0
-11 64 98 0
-36 -65 98 0
3 70 98 0
11 74 98 0
40 -47 -99 0
39 60 -99 0
-21 -65 -99 0
-17 67 -99 0
37 -43 99 0
14 -60 99 0
16 -72 99 0
12 53 -100 0
5 64 -100 0
29 -65 -100 0
7 74 -100 0
-25 -54 100 0
-9 58 -101 0
-13 70 -101 0
-20 -76 -101 0
-18 -77 -101 0
5 -43 101 0
34 -44 101 0
-25 45 101 0
-16 49 101 0
-7 59 101 0
-12 66 101 0
-40 -42 -102 0
-25 42 -102 0
23 -47 -102 0
33 52 -102 0
-25 58 -102 0
34 65 -102 0
30 68 -102 0
39 -69 -102 0
25 -71 -102 0
11 75 -102 0
-25 76 -102 0
-25 -59 102 0
-31 62 102 0
-35 68 102 0
11 -67 -103 0
-34 -67 -103 0
-10 -47 103 0
-26 -67 103 0
35 68 103 0
-24 -69 103 0
40 69 103 0
-7 -44 -104 0
-32 -53 -104 0
-10 -57 -104 0
17 -61 -104 0
18 -64 -104 0
-22 66 -104 0
-19 -70 -104 0
35 -43 104 0
11 -52 104 0
40 60 104 0
-1 68 104 0
-34 71 104 0
-20 48 -105 0
16 -49 -105 0
-27 51 -105 0
8 61 -105 0
25 -41 105 0
10 41 105 0
29 45 105 0
-7 52 105 0
-15 67 105 0
27 68 105 0
37 45 -106 0
24 53 -106 0
33 -60 -106 0
-23 -61 -106 0
-3 64 -106 0
-18 -46 106 0
3 -60 106 0
21 60 106 0
-26 72 106 0
3 79 106 0
-8 -52 -107 0
-17 56 -107 0
-25 -77 -107 0
-21 -41 107 0
21 -61 107 0
7 62 107 0
35 -66 107 0
7 -69 107 0
-34 69 107 0
24 -76 107 0
15 52 -108 0
-19 -53 -108 0
28 54 -108 0
10 61 -108 0
-4 47 108 0
-19 -55 108 0
-3 55 108 0
6 -70 108 0
-25 49 -109 0
-36 59 -109 0
30 -74 109 0
-24 -79 109 0
15 56 -110 0
-32 -61 -110 0
36 -62 -110 0
5 62 -110 0
-31 -63 -110 0
-5 67 -110 0
-15 -69 -110 0
-20 -46 110 0
10 67 110 0
17 -71 110 0
11 -73 110 0
40 54 -111 0
-38 59 -111 0
-20 -69 -111 0
-19 70 -111 0
-15 44 111 0
-3 56 111 0
7 -72 111 0
-11 -74 111 0
21 -75 111 0
-18 -79 111 0
-34 41 -112 0
-5 49 -112 0
11 -53 -112 0
40 54 -112 0
15 66 -112 0
1 -70 -112 0
-11 -57 112 0
-20 76 112 0
-33 -56 -113 0
-24 -61 -113 0
23 60 113 0
-38 74 113 0
-19 80 113 0
16 43 -114 0
-8 45 -114 0
30 51 -114 0
-13 54 -114 0
-10 65 -114 0
-25 79 -114 0
29 -49 114 0
-31 -59 114 0
-25 -63 114 0
38 -65 114 0
26 46 -115 0
7 -49 -115 0
-18 67 -115 0
11 -53 115 0
35 62 115 0
-13 -69 115 0
-33 -78 115 0
38 79 115 0
11 52 -116 0
24 63 -116 0
31 70 -116 0
-22 76 -116 0
-19 47 116 0
-40 67 116 0
-20 -75 116 0
35 78 116 0
-17 -49 -117 0
15 52 -117 0
-3 -54 -117 0
-28 63 -117 0
1 71 -117 0
-16 78 -117 0
-34 79 -117 0
-40 -55 117 0
-16 -68 117 0
5 77 117 0
24 -44 -118 0
-22 -59 -118 0
20 -60 -118 0
31 61 -118 0
39 68 -118 0
38 42 118 0
8 -54 118 0
15 57 118 0
-1 -60 118 0
3 60 118 0
-3 -63 118 0
-32 -76 118 0
-13 -44 -119 0
32 -47 -119 0
-18 -59 -119 0
36 -64 -119 0
-29 73 -119 0
-15 -53 119 0
-27 -59 119 0
-24 -60 119 0
-37 68 119 0
23 77 119 0
-21 -78 119 0
-4 41 -120 0
2 -49 -120 0
-3 -56 -120 0
-28 -62 -120 0
-9 72 -120 0
-10 59 120 0
5 -62 120 0
